unsat
(:conflicts            1
 :max-generation       1
 :max-memory           22.37
 :memory               20.82
 :mk-bool-var          229
 :mk-clause            24
 :mk-clause-binary     92
 :num-allocs           2844545
 :num-checks           1
 :quant-instantiations 25
 :rlimit-count         42291
 :time                 0.01)
